Version identifier: 20.1.0.0 | 2020-11-10 | 9bedb6d68
Tried aggregator 3 times.
MIP Presolve eliminated 2451 rows and 1246 columns.
MIP Presolve modified 6280 coefficients.
Aggregator did 243 substitutions.
Reduced MIP has 3715 rows, 2926 columns, and 12198 nonzeros.
Reduced MIP has 582 binaries, 2344 generals, 0 SOSs, and 0 indicators.
Presolve time = 0.04 sec. (16.86 ticks)
Probing fixed 78 vars, tightened 684 bounds.
Probing time = 0.01 sec. (1.57 ticks)
Tried aggregator 2 times.
Detecting symmetries...
MIP Presolve eliminated 1537 rows and 138 columns.
MIP Presolve modified 305 coefficients.
Aggregator did 36 substitutions.
Reduced MIP has 2142 rows, 2752 columns, and 6979 nonzeros.
Reduced MIP has 922 binaries, 1830 generals, 0 SOSs, and 0 indicators.
Presolve time = 0.02 sec. (10.32 ticks)
Probing time = 0.00 sec. (0.65 ticks)
Clique table members: 23.
MIP emphasis: balance optimality and feasibility.
MIP search method: dynamic search.
Parallel mode: deterministic, using up to 24 threads.
Root relaxation solution time = 0.03 sec. (8.14 ticks)

        Nodes                                         Cuts/
   Node  Left     Objective  IInf  Best Integer    Best Bound    ItCnt     Gap

      0     0        0.0000    93                      0.0000      583         
*     0+    0                         3274.0000        0.0000           100.00%
*     0+    0                          179.0000        0.0000           100.00%
      0     0        0.0000   115      179.0000     Cuts: 157      766  100.00%
*     0+    0                           28.0000        0.0000           100.00%
      0     0        0.0001   426       28.0000     Cuts: 168     1400  100.00%
      0     0        0.0006   452       28.0000      Cuts: 99     1503  100.00%
      0     0        0.0010   474       28.0000      Cuts: 61     1555  100.00%
*     0+    0                           19.0000        0.0010            99.99%
*     0+    0                           12.0000        0.0010            99.99%
      0     0        cutoff             12.0000       12.0000     1803    0.00%
Elapsed time = 1.33 sec. (244.77 ticks, tree = 0.01 MB, solutions = 5)

Clique cuts applied:  2
Implied bound cuts applied:  63
Flow cuts applied:  28
Mixed integer rounding cuts applied:  22
Zero-half cuts applied:  158
Lift and project cuts applied:  12
Gomory fractional cuts applied:  33

Root node processing (before b&c):
  Real time             =    1.33 sec. (245.05 ticks)
Parallel b&c, 24 threads:
  Real time             =    0.00 sec. (0.00 ticks)
  Sync time (average)   =    0.00 sec.
  Wait time (average)   =    0.00 sec.
                          ------------
Total (root+branch&cut) =    1.33 sec. (245.05 ticks)

Solution status = Optimal
Solution LB = 12
Solution UB = 12
Runtime = 1.3395 seconds
	Command being timed: "/home/min/git_repos/CS598MEBProject/CNT-ILP/build/cnt -s 2 ./output/k8_n40/simC_c1_k8_n40_u3_s2_del04.input-left.cnp"
	User time (seconds): 16.21
	System time (seconds): 0.12
	Percent of CPU this job got: 1182%
	Elapsed (wall clock) time (h:mm:ss or m:ss): 0:01.38
	Average shared text size (kbytes): 0
	Average unshared data size (kbytes): 0
	Average stack size (kbytes): 0
	Average total size (kbytes): 0
	Maximum resident set size (kbytes): 165604
	Average resident set size (kbytes): 0
	Major (requiring I/O) page faults: 0
	Minor (reclaiming a frame) page faults: 40809
	Voluntary context switches: 6483
	Involuntary context switches: 2174
	Swaps: 0
	File system inputs: 0
	File system outputs: 24
	Socket messages sent: 0
	Socket messages received: 0
	Signals delivered: 0
	Page size (bytes): 4096
	Exit status: 0
